Running HiGHS 1.12.0 (git hash: n/a): Copyright (c) 2025 HiGHS under MIT licence terms
Set option solver to "simplex"
Set option parallel to "off"
Set option time_limit to 600
Set option simplex_strategy to 4
Set option log_file to "HiGHS.log"
WARNING: LP matrix packed vector contains 2 |values| in [8.88178e-16, 8.88178e-16] less than or equal to 1e-09: ignored
MIP var-smallemery-m6j6 has 13416 rows; 5608 cols; 850621 nonzeros; 5606 integer variables (5606 binary)
Coefficient ranges:
  Matrix  [3e-02, 1e+04]
  Cost    [1e+00, 1e+00]
  Bound   [1e+00, 1e+00]
  RHS     [6e+00, 1e+03]
Presolving model
10386 rows, 3221 cols, 505398 nonzeros  0s
8281 rows, 3004 cols, 467494 nonzeros  0s
8044 rows, 2863 cols, 445729 nonzeros  5s
Presolve reductions: rows 8044(-5372); columns 2863(-2745); nonzeros 445729(-404892) 

Solving MIP model with:
   8044 rows
   2863 cols (2862 binary, 0 integer, 0 implied int., 1 continuous, 0 domain fixed)
   445729 nonzeros

Src: B => Branching; C => Central rounding; F => Feasibility pump; H => Heuristic;
     I => Shifting; J => Feasibility jump; L => Sub-MIP; P => Empty MIP; R => Randomized rounding;
     S => Solve LP; T => Evaluate node; U => Unbounded; X => User solution; Y => HiGHS solution;
     Z => ZI Round; l => Trivial lower; p => Trivial point; u => Trivial upper; z => Trivial zero

        Nodes      |    B&B Tree     |            Objective Bounds              |  Dynamic Constraints |       Work      
Src  Proc. InQueue |  Leaves   Expl. | BestBound       BestSol              Gap |   Cuts   InLp Confl. | LpIters     Time

 J       0       0         0   0.00%   -inf            4.1875             Large        0      0      0         0     6.0s
         0       0         0   0.00%   -156.0562681    4.1875          3826.72%        0      0      1      1911     7.1s
 C       0       0         0   0.00%   -155.9249142    -97.4375          60.03%      103      5      1      1966     9.3s
 L       0       0         0   0.00%   -155.6088385    -142.9375          8.86%      910     16      1      2233    18.5s
 L       0       0         0   0.00%   -155.6088385    -144.78125         7.48%      910     16      1      3737    21.1s

5.7% inactive integer columns, restarting
Model after restart has 6891 rows, 2631 cols (2630 bin., 0 int., 0 impl., 1 cont., 0 dom.fix.), and 408394 nonzeros

         0       0         0   0.00%   -155.6088385    -144.78125         7.48%        9      0      0      4879    22.2s
         0       0         0   0.00%   -155.6088385    -144.78125         7.48%        9      9      2      6490    23.1s
 L       0       0         0   0.00%   -155.6088385    -145.34375         7.06%        9      9      2      6490    28.5s

2.6% inactive integer columns, restarting
Model after restart has 6560 rows, 2556 cols (2555 bin., 0 int., 0 impl., 1 cont., 0 dom.fix.), and 396411 nonzeros

         0       0         0   0.00%   -155.6088385    -145.34375         7.06%        9      0      0      9652    33.3s
         0       0         0   0.00%   -155.6088385    -145.34375         7.06%        9      9      4     10125    33.6s
 L       0       0         0   0.00%   -155.6088385    -145.90625         6.65%        9      9      4     10125    40.0s
        20       0         1   0.00%   -155.6088385    -145.90625         6.65%       19      9    291     22773    53.8s
        38       3        10   0.00%   -155.6088385    -145.90625         6.65%       68      9    736     26250    58.9s
        58       3        18   0.00%   -155.6088385    -145.90625         6.65%      117      9   1129     29928    64.1s
        81       9        28   0.03%   -155.6088385    -145.90625         6.65%      167      9   1576     33338    69.2s
       122      25        39   0.04%   -155.1926884    -145.90625         6.36%      285     10   2106     40021    77.8s
       151      30        54   0.04%   -155.1926884    -145.90625         6.36%      341     10   2692     43994    83.4s
 L     178      43        66   0.05%   -154.9831929    -145.906251        6.22%      282      9   3157     46918    89.2s
       221      46        82   0.06%   -154.9831929    -145.906251        6.22%      330      9   3685     52282    94.4s
       283      58       110   0.09%   -154.9831929    -145.906251        6.22%      438     10   4373     57209   101.2s

        Nodes      |    B&B Tree     |            Objective Bounds              |  Dynamic Constraints |       Work      
Src  Proc. InQueue |  Leaves   Expl. | BestBound       BestSol              Gap |   Cuts   InLp Confl. | LpIters     Time

 L     307      68       116   0.10%   -154.9831929    -146.15625         6.04%      777     13   4558     58796   105.3s
 L     380      90       140   0.10%   -154.659115     -146.156251        5.82%      983     17   5231     63206   111.7s
       436      92       158   0.10%   -154.659115     -146.156251        5.82%     1029     17   5718     67761   116.8s
       490     112       181   0.10%   -154.659115     -146.156251        5.82%     1116     18   6415     70981   121.8s
       593     125       224   0.10%   -154.659115     -146.156251        5.82%     1181      3   7541     74854   128.9s
       696     137       267   0.11%   -154.659115     -146.156251        5.82%     1310      7   8600     78943   135.1s
       777     154       299   0.11%   -154.659115     -146.156251        5.82%     1353      9   9385     81982   140.1s
 L     841     159       328   1.67%   -154.659115     -146.46875         5.59%     1448     11   7139     83729   145.4s
       952     173       371   1.67%   -154.659115     -146.46875         5.59%     1423      9   8338     89220   152.5s
 L    1044     189       412   1.67%   -154.659115     -146.46875         5.59%     1440     10   9376     90711   156.7s
      1160     200       457   1.67%   -154.659115     -146.46875         5.59%     1472     13   9011     95587   163.8s
      1259     219       497   1.67%   -154.659115     -146.46875         5.59%     1671      9   8305    100248   171.8s
      1356     238       537   1.68%   -154.5804242    -146.46875         5.54%     1627     10   9169    103656   177.0s

Restarting search from the root node
Model after restart has 5960 rows, 2413 cols (2412 bin., 0 int., 0 impl., 1 cont., 0 dom.fix.), and 373627 nonzeros

      1448       0         0   0.00%   -154.5804242    -146.46875         5.54%       10      0      0    105484   181.4s
      1448       0         0   0.00%   -154.5804242    -146.46875         5.54%       10      0      5    106254   181.8s
      1448       0         0   0.00%   -154.5804242    -146.46875         5.54%     1724     17      5    106454   186.9s
      1448       0         0   0.00%   -154.5804242    -146.46875         5.54%     2249     23      5    106751   191.9s

2.6% inactive integer columns, restarting
Model after restart has 5678 rows, 2351 cols (2350 bin., 0 int., 0 impl., 1 cont., 0 dom.fix.), and 363706 nonzeros

      1448       0         0   0.00%   -154.5804242    -146.46875         5.54%        9      0      0    106774   193.2s
      1448       0         0   0.00%   -154.5804242    -146.46875         5.54%        9      9      2    107650   193.6s
      1479       7         8   0.67%   -154.5804242    -146.46875         5.54%       66     11    576    112201   198.7s

        Nodes      |    B&B Tree     |            Objective Bounds              |  Dynamic Constraints |       Work      
Src  Proc. InQueue |  Leaves   Expl. | BestBound       BestSol              Gap |   Cuts   InLp Confl. | LpIters     Time

      1573      18        49   2.38%   -154.5804242    -146.46875         5.54%       93     15   1754    118092   205.9s
      1661      39        80   5.48%   -154.5804242    -146.46875         5.54%      227     20   2784    121299   211.2s
      1759      56       120   5.61%   -154.5804242    -146.46875         5.54%      345     13   3878    124390   216.9s
      1884      69       174   5.64%   -154.5804242    -146.46875         5.54%      512     11   4992    127257   222.1s
      2002      82       227   5.67%   -154.5804242    -146.46875         5.54%      639     18   6180    129760   227.2s
      2101      94       266   5.69%   -154.5804242    -146.46875         5.54%     1044     14   7233    132157   232.3s
      2195     104       310   7.07%   -154.5804242    -146.46875         5.54%     1099     15   8493    136078   237.4s
      2332     123       368   7.18%   -154.5804242    -146.46875         5.54%     1210      6   9694    138535   242.4s
      2465     142       424   7.18%   -154.5804242    -146.46875         5.54%     1315      8   9405    141011   247.5s
      2617     157       490   7.19%   -154.5804242    -146.46875         5.54%     1381      9   9105    143252   252.5s
      2777     170       563   7.20%   -154.5804242    -146.46875         5.54%     1533     19   9055    145515   257.5s
      2929     188       627   7.21%   -154.5804242    -146.46875         5.54%     1713      6   9147    147992   262.8s
      3072     213       684   7.22%   -154.5804242    -146.46875         5.54%     1695     11   7932    151058   268.6s
      3242     236       756   7.24%   -154.5804242    -146.46875         5.54%     1906      9   9362    153583   273.7s

Restarting search from the root node
Model after restart has 5678 rows, 2349 cols (2348 bin., 0 int., 0 impl., 1 cont., 0 dom.fix.), and 363406 nonzeros

      3364       0         0   0.00%   -154.5804242    -146.46875         5.54%       12      0      0    155985   279.7s
      3364       0         0   0.00%   -154.5804242    -146.46875         5.54%       12      1      6    155986   279.8s
      3453      12        34   5.13%   -154.5804242    -146.46875         5.54%      231      7   1153    160208   284.9s
      3611      19       109   8.24%   -154.5804242    -146.46875         5.54%      656      7   2611    162776   290.0s
      3765      34       171  21.32%   -154.5804242    -146.46875         5.54%      829     10   3860    166777   295.7s
      3915      78       224  21.33%   -154.5804242    -146.46875         5.54%     1036      8   5935    170013   300.8s

        Nodes      |    B&B Tree     |            Objective Bounds              |  Dynamic Constraints |       Work      
Src  Proc. InQueue |  Leaves   Expl. | BestBound       BestSol              Gap |   Cuts   InLp Confl. | LpIters     Time

      4094      98       305  21.35%   -154.5804242    -146.46875         5.54%     1262      9   7723    172925   305.8s
      4234     123       362  21.50%   -154.5804242    -146.46875         5.54%     1478     13   9148    175834   310.9s
      4417     147       440  21.60%   -154.5804242    -146.46875         5.54%     1587     13   9152    179186   317.7s
      4550     165       497  21.61%   -154.5804242    -146.46875         5.54%     1625      9   9703    181452   322.8s
      4732     189       576  21.62%   -154.5804242    -146.46875         5.54%     1633     13   8043    183904   327.8s
      4876     205       638  21.72%   -154.5804242    -146.46875         5.54%     1647     13   9467    186230   332.9s
      5033     231       701  21.79%   -154.5804242    -146.46875         5.54%     1592     11   9665    189042   338.1s
      5190     260       760  21.79%   -154.5804242    -146.46875         5.54%     1474     14   9314    191556   343.4s
      5378     274       848  21.79%   -154.5804242    -146.46875         5.54%     1527     11   9762    193761   348.4s
      5522     281       915  21.80%   -154.5804242    -146.46875         5.54%     1768     13   9812    196050   353.4s
      5671     302       974  21.82%   -154.5804242    -146.46875         5.54%     1838     13   9942    198933   358.4s
      5845     323      1052  21.84%   -154.4624747    -146.46875         5.46%     1807     12   8918    201587   363.5s
      6012     347      1121  21.87%   -154.4624747    -146.46875         5.46%     1922      6   9382    204423   368.6s
      6170     371      1186  21.88%   -154.4624747    -146.46875         5.46%     1806      9   9189    207020   373.6s
      6337     386      1259  21.88%   -154.4624747    -146.46875         5.46%     1898      9   9615    209781   378.7s
      6479     409      1317  22.66%   -154.4546181    -146.46875         5.45%     2171     15   9913    212402   383.7s

Restarting search from the root node
Model after restart has 5307 rows, 2250 cols (2249 bin., 0 int., 0 impl., 1 cont., 0 dom.fix.), and 347720 nonzeros

      6560       0         0   0.00%   -154.4546181    -146.46875         5.45%       19      0      0    213347   388.4s
      6560       0         0   0.00%   -154.4546181    -146.46875         5.45%       19      1      3    213380   388.5s
      6560       0         0   0.00%   -154.4546181    -146.46875         5.45%     2531     23      3    213666   393.7s

5.3% inactive integer columns, restarting
Model after restart has 4708 rows, 2130 cols (2129 bin., 0 int., 0 impl., 1 cont., 0 dom.fix.), and 328405 nonzeros

      6560       0         0   0.00%   -154.4546181    -146.46875         5.45%       10      0      0    213865   398.4s

        Nodes      |    B&B Tree     |            Objective Bounds              |  Dynamic Constraints |       Work      
Src  Proc. InQueue |  Leaves   Expl. | BestBound       BestSol              Gap |   Cuts   InLp Confl. | LpIters     Time

      6560       0         0   0.00%   -154.4546181    -146.46875         5.45%       10     10      3    214524   398.7s
      6569       0         1   0.39%   -154.4546181    -146.46875         5.45%     1141      9    100    217966   404.7s
      6755      16        88   4.53%   -154.4546181    -146.46875         5.45%     1212     14   2536    221931   409.7s
      6907      16       163   5.52%   -154.4546181    -146.46875         5.45%      955      8   4262    224318   414.9s
      7094      34       242   5.62%   -154.4546181    -146.46875         5.45%     1085     10   6325    228311   419.9s
      7327      67       340   5.67%   -154.4546181    -146.46875         5.45%     1294     11   8673    231582   425.3s
      7537      94       429   5.70%   -154.4546181    -146.46875         5.45%     1383     10   8858    234389   430.3s
      7719     119       508   5.73%   -154.4546181    -146.46875         5.45%     1288     23   8768    237151   435.4s
      7847     143       556   5.75%   -154.4546181    -146.46875         5.45%     1087     11   9901    239940   440.4s
      8043     170       639   5.78%   -154.4546181    -146.46875         5.45%     1175      9   9560    242828   445.5s
      8251     200       725   5.79%   -154.4546181    -146.46875         5.45%     1099     15   9979    246245   451.9s
      8469     237       814   5.80%   -154.4546181    -146.46875         5.45%     1082     20   9900    249394   456.9s
      8668     265       899   5.80%   -154.4546181    -146.46875         5.45%     1255      7   9577    252315   461.9s
      8859     295       977   5.82%   -154.4546181    -146.46875         5.45%     1388     12   8895    255179   467.0s
      9058     329      1055   5.84%   -154.4546181    -146.46875         5.45%     1453      9   9212    258154   472.0s
      9276     356      1152   5.84%   -154.4546181    -146.46875         5.45%     1297     12   9259    261121   477.0s
      9456     371      1224   5.85%   -154.4546181    -146.46875         5.45%     1427     12   9855    263889   482.1s
      9627     399      1297   5.86%   -154.4546181    -146.46875         5.45%     1490     20   9947    266282   487.1s
      9810     421      1371   5.87%   -154.4546181    -146.46875         5.45%     1320     24   9807    268924   492.5s
     10026     447      1468   5.93%   -154.4546181    -146.46875         5.45%     1360     21   9438    271586   497.6s

        Nodes      |    B&B Tree     |            Objective Bounds              |  Dynamic Constraints |       Work      
Src  Proc. InQueue |  Leaves   Expl. | BestBound       BestSol              Gap |   Cuts   InLp Confl. | LpIters     Time

     10221     460      1556   5.96%   -154.4546181    -146.46875         5.45%     1497     15   9654    274533   502.7s
     10379     477      1627   5.97%   -154.3968486    -146.46875         5.41%     1769     20   9044    277028   507.7s
     10561     497      1703   5.97%   -154.3968486    -146.46875         5.41%     1574     20   8871    279653   512.7s
     10763     517      1794   5.97%   -154.3968486    -146.46875         5.41%     1686     20   9648    282352   517.8s
     10948     538      1874   5.97%   -154.3968486    -146.46875         5.41%     1743     32   9195    285138   522.8s
     11121     563      1945   6.25%   -154.3968486    -146.46875         5.41%     1461     14   9952    288265   527.9s
     11335     587      2038   6.27%   -154.2391641    -146.46875         5.31%     1407     15   9792    291048   532.9s
     11547     618      2129   6.28%   -154.2391641    -146.46875         5.31%     1391     28   9460    294535   538.6s
     11744     629      2217   6.28%   -154.2391641    -146.46875         5.31%     1503     18   9646    297342   543.6s

Restarting search from the root node
Model after restart has 4687 rows, 2128 cols (2127 bin., 0 int., 0 impl., 1 cont., 0 dom.fix.), and 328063 nonzeros

     11751       0         0   0.00%   -154.2391641    -146.46875         5.31%       18      0      0    297391   544.8s
     11751       0         0   0.00%   -154.2391641    -146.46875         5.31%       18      0      4    297391   544.8s
     11751       0         0   0.00%   -154.2391641    -146.46875         5.31%     2231     20      4    297642   550.0s
     11751       0         0   0.00%   -154.2391641    -146.46875         5.31%     2358     23      4    297935   555.1s
     11849       2        38   0.00%   -154.2391641    -146.46875         5.31%     1227      9   1194    301385   560.1s
     12039      42       115   0.01%   -154.2391641    -146.46875         5.31%      842     17   2979    305321   565.9s
     12240      69       201   0.01%   -154.2391641    -146.46875         5.31%      861     21   5196    308557   571.8s
     12387      84       267   0.37%   -154.2391641    -146.46875         5.31%     1249     22   7106    311826   576.8s
     12537     109       329   0.41%   -154.2391641    -146.46875         5.31%     1544     19   9071    315255   582.0s
     12659     127       376   0.42%   -154.2391641    -146.46875         5.31%     1596      8   8217    318689   587.0s
     12765     140       418   0.42%   -154.2391641    -146.46875         5.31%     2108     19   9471    327193   597.1s

        Nodes      |    B&B Tree     |            Objective Bounds              |  Dynamic Constraints |       Work      
Src  Proc. InQueue |  Leaves   Expl. | BestBound       BestSol              Gap |   Cuts   InLp Confl. | LpIters     Time

     12852     166       456   0.43%   -154.2391641    -146.46875         5.31%     2145     22   8540    328952   600.0s

Solving report
  Model             var-smallemery-m6j6
  Status            Time limit reached
  Primal bound      -146.46875
  Dual bound        -154.239164139
  Gap               5.31% (tolerance: 0.01%)
  P-D integral      440.779234663
  Solution status   feasible
                    -146.46875 (objective)
                    0 (bound viol.)
                    4.94049245958e-14 (int. viol.)
                    0 (row viol.)
  Timing            600.02
  Max sub-MIP depth 7
  Nodes             12852
  Repair LPs        0
  LP iterations     328952
                    94187 (strong br.)
                    8921 (separation)
                    34780 (heuristics)
Model name          : var-smallemery-m6j6
Model status        : Time limit reached
Simplex   iterations: 328952
IPM       iterations: -1
Crossover iterations: -1
PDLP      iterations: -1
QP ASM    iterations: -1
Objective value     : -1.4646875000e+02
HiGHS run time      :        600.03
